
Gurobi 8.1.1 (linux64, Python) logging started Sat Jun  8 20:40:09 2019

Academic license - for non-commercial use only

Gurobi 8.1.1 (linux64, Python) logging started Sat Jun  8 20:45:44 2019

Academic license - for non-commercial use only

Gurobi 8.1.1 (linux64, Python) logging started Sat Jun  8 20:47:21 2019

Academic license - for non-commercial use only

Gurobi 8.1.1 (linux64, Python) logging started Sat Jun  8 20:50:35 2019

Academic license - for non-commercial use only

Gurobi 8.1.1 (linux64, Python) logging started Sat Jun  8 22:53:06 2019

Academic license - for non-commercial use only

Gurobi 8.1.1 (linux64, Python) logging started Sat Jun  8 22:59:53 2019

Academic license - for non-commercial use only

Gurobi 8.1.1 (linux64, Python) logging started Sat Jun  8 23:01:51 2019

Academic license - for non-commercial use only

Gurobi 8.1.1 (linux64, Python) logging started Sat Jun  8 23:06:59 2019

Academic license - for non-commercial use only

Gurobi 8.1.1 (linux64, Python) logging started Sat Jun  8 23:09:00 2019

Academic license - for non-commercial use only

Gurobi 8.1.1 (linux64, Python) logging started Sat Jun  8 23:33:24 2019

Academic license - for non-commercial use only

Gurobi 8.1.1 (linux64, Python) logging started Sat Jun  8 23:36:00 2019

Academic license - for non-commercial use only

Gurobi 8.1.1 (linux64, Python) logging started Sun Jun  9 09:36:32 2019

Academic license - for non-commercial use only

Gurobi 8.1.1 (linux64, Python) logging started Sun Jun  9 10:42:59 2019

Academic license - for non-commercial use only

Gurobi 8.1.1 (linux64, Python) logging started Sun Jun  9 10:45:31 2019

Academic license - for non-commercial use only

Gurobi 8.1.1 (linux64, Python) logging started Sun Jun  9 10:49:14 2019

Academic license - for non-commercial use only

Gurobi 8.1.1 (linux64, Python) logging started Sun Jun  9 10:59:26 2019

Academic license - for non-commercial use only

Gurobi 8.1.1 (linux64, Python) logging started Sun Jun  9 14:38:44 2019

Academic license - for non-commercial use only

Gurobi 8.1.1 (linux64, Python) logging started Sun Jun  9 14:42:19 2019

Academic license - for non-commercial use only

Gurobi 8.1.1 (linux64, Python) logging started Sun Jun  9 14:43:50 2019

Academic license - for non-commercial use only

Gurobi 8.1.1 (linux64, Python) logging started Sun Jun  9 15:05:13 2019

Academic license - for non-commercial use only

Gurobi 8.1.1 (linux64, Python) logging started Sun Jun  9 15:09:33 2019

Academic license - for non-commercial use only

Gurobi 8.1.1 (linux64, Python) logging started Sun Jun  9 15:12:47 2019

Academic license - for non-commercial use only

Gurobi 8.1.1 (linux64, Python) logging started Sun Jun  9 15:18:12 2019

Academic license - for non-commercial use only

Gurobi 8.1.1 (linux64, Python) logging started Sun Jun  9 15:22:41 2019

Academic license - for non-commercial use only

Gurobi 8.1.1 (linux64, Python) logging started Sun Jun  9 15:33:44 2019

Academic license - for non-commercial use only

Gurobi 8.1.1 (linux64, Python) logging started Sun Jun  9 15:37:06 2019

Academic license - for non-commercial use only

Gurobi 8.1.1 (linux64, Python) logging started Sun Jun  9 15:45:20 2019

Academic license - for non-commercial use only

Gurobi 8.1.1 (linux64, Python) logging started Sun Jun  9 15:47:45 2019

Academic license - for non-commercial use only

Gurobi 8.1.1 (linux64, Python) logging started Sun Jun  9 15:58:19 2019

Academic license - for non-commercial use only

Gurobi 8.1.1 (linux64, Python) logging started Sun Jun  9 16:03:22 2019

Academic license - for non-commercial use only

Gurobi 8.1.1 (linux64, Python) logging started Sun Jun  9 16:06:54 2019

Academic license - for non-commercial use only

Gurobi 8.1.1 (linux64, Python) logging started Sun Jun  9 17:37:27 2019

Academic license - for non-commercial use only

Gurobi 8.1.1 (linux64, Python) logging started Sun Jun  9 17:40:52 2019

Academic license - for non-commercial use only

Gurobi 8.1.1 (linux64, Python) logging started Sun Jun  9 17:49:33 2019

Academic license - for non-commercial use only

Gurobi 8.1.1 (linux64, Python) logging started Sun Jun  9 17:52:10 2019

Academic license - for non-commercial use only

Gurobi 8.1.1 (linux64, Python) logging started Sun Jun  9 17:53:27 2019

Academic license - for non-commercial use only

Gurobi 8.1.1 (linux64, Python) logging started Sun Jun  9 17:54:52 2019

Academic license - for non-commercial use only

Gurobi 8.1.1 (linux64, Python) logging started Sun Jun  9 18:02:08 2019

Academic license - for non-commercial use only

Gurobi 8.1.1 (linux64, Python) logging started Sun Jun  9 18:04:30 2019

Academic license - for non-commercial use only

Gurobi 8.1.1 (linux64, Python) logging started Sun Jun  9 18:13:28 2019

Academic license - for non-commercial use only

Gurobi 8.1.1 (linux64, Python) logging started Sun Jun  9 18:24:06 2019

Academic license - for non-commercial use only

Gurobi 8.1.1 (linux64, Python) logging started Sun Jun  9 18:26:47 2019

Academic license - for non-commercial use only

Gurobi 8.1.1 (linux64, Python) logging started Sun Jun  9 18:30:52 2019

Academic license - for non-commercial use only

Gurobi 8.1.1 (linux64, Python) logging started Sun Jun  9 19:17:03 2019

Academic license - for non-commercial use only

Gurobi 8.1.1 (linux64, Python) logging started Sun Jun  9 19:23:56 2019

Academic license - for non-commercial use only

Gurobi 8.1.1 (linux64, Python) logging started Sun Jun  9 19:27:48 2019

Academic license - for non-commercial use only

Gurobi 8.1.1 (linux64, Python) logging started Sun Jun  9 19:30:30 2019

Academic license - for non-commercial use only

Gurobi 8.1.1 (linux64, Python) logging started Sun Jun  9 19:35:17 2019

Academic license - for non-commercial use only

Gurobi 8.1.1 (linux64, Python) logging started Sun Jun  9 19:39:04 2019

Academic license - for non-commercial use only
